NAME : XML100_3226_20
DIMENSION : 101
NB_CLUSTERS : 3
CLUSTERING_ALG : KMedoids
CLUSTERING_PARAMS : k(2)
CLUSTERS
1 0
2 1 2 5 10 11 12 14 15 17 19 20 22 27 28 30 31 32 35 40 41 42 43 44 46 47 48 49 52 54 55 56 57 61 63 64 66 67 68 71 72 74 77 85 87 89 90 92 93 94 95 96 99 100
3 3 4 6 7 8 9 13 16 18 21 23 24 25 26 29 33 34 36 37 38 39 45 50 51 53 58 59 60 62 65 69 70 73 75 76 78 79 80 81 82 83 84 86 88 91 97 98
EOF